NAME : tsp225
COMMENT : A TSP problem (Reinelt)
TYPE : TSP
DIMENSION : 5
EDGE_WEIGHT_TYPE : EUC_2D
NODE_COORD_SECTION
  1 155.42 150.65
  2 375.92 164.65
  3 183.92 150.65
  4 205.42 150.65
  5 205.42 171.65
EOF
